% Generated by MiniZinc 2.9.3
% Solver library: /home/void/Workspace-Research/Code/fzn-minicpp/minizinc
% Command line invocation: minizinc --solver org.minicpp.ml --compile --no-output-ozn rcpsp-sat.mzn dzn/J60_47_8.dzn -D makespan=71 -o fzn-sat/J60_47_8.fzn 

predicate minicpp_cumulative(array [int] of var int: s,array [int] of var int: d,array [int] of var int: r,var int: b);
array [1..2] of int: X_INTRODUCED_78_ = [1,-1];
array [1..60] of int: X_INTRODUCED_135_ = [8,8,9,1,6,6,9,3,9,6,8,6,2,7,8,10,9,3,4,4,5,1,8,3,1,3,8,2,2,6,4,2,5,10,6,5,4,6,9,9,5,9,5,8,4,7,9,9,2,4,8,6,9,3,2,6,5,4,4,1];
array [1..60] of int: X_INTRODUCED_136_ = [4,2,9,9,9,5,6,2,4,8,4,4,8,6,7,3,2,3,2,4,10,4,3,5,2,5,9,4,4,8,5,5,9,5,1,3,3,4,8,6,1,10,4,3,2,6,2,9,5,5,2,1,4,6,10,6,7,1,9,10];
array [1..60] of int: X_INTRODUCED_137_ = [6,5,8,4,10,9,6,4,2,8,6,4,7,6,2,1,8,1,1,3,4,8,9,3,9,10,6,6,9,10,2,4,6,4,8,8,5,10,3,5,8,5,7,1,5,1,9,8,5,1,1,10,2,10,7,9,8,9,10,6];
array [1..60] of int: X_INTRODUCED_138_ = [10,1,10,10,7,8,9,1,9,5,4,2,8,10,3,5,7,7,4,10,8,2,4,9,5,1,9,4,9,3,4,2,2,1,2,8,5,3,10,7,5,5,7,5,2,3,8,2,10,10,8,2,5,1,10,8,7,6,8,5];
array [1..60] of int: X_INTRODUCED_139_ = [5,6,4,6,10,4,1,8,1,2,9,2,4,2,3,6,8,4,8,8,5,5,2,1,2,1,9,7,7,5,7,10,9,9,5,6,2,10,6,7,4,2,6,9,6,3,8,2,5,3,4,2,10,7,5,2,5,9,1,8];
var 0..306: X_INTRODUCED_16_;
var 0..306: X_INTRODUCED_17_;
var 0..306: X_INTRODUCED_18_;
var 0..306: X_INTRODUCED_19_;
var 0..306: X_INTRODUCED_20_;
var 0..306: X_INTRODUCED_21_;
var 0..306: X_INTRODUCED_22_;
var 0..306: X_INTRODUCED_23_;
var 0..306: X_INTRODUCED_24_;
var 0..306: X_INTRODUCED_25_;
var 0..306: X_INTRODUCED_26_;
var 0..306: X_INTRODUCED_27_;
var 0..306: X_INTRODUCED_28_;
var 0..306: X_INTRODUCED_29_;
var 0..306: X_INTRODUCED_30_;
var 0..306: X_INTRODUCED_31_;
var 0..306: X_INTRODUCED_32_;
var 0..306: X_INTRODUCED_33_;
var 0..306: X_INTRODUCED_34_;
var 0..306: X_INTRODUCED_35_;
var 0..306: X_INTRODUCED_36_;
var 0..306: X_INTRODUCED_37_;
var 0..306: X_INTRODUCED_38_;
var 0..306: X_INTRODUCED_39_;
var 0..306: X_INTRODUCED_40_;
var 0..306: X_INTRODUCED_41_;
var 0..306: X_INTRODUCED_42_;
var 0..306: X_INTRODUCED_43_;
var 0..306: X_INTRODUCED_44_;
var 0..306: X_INTRODUCED_45_;
var 0..306: X_INTRODUCED_46_;
var 0..306: X_INTRODUCED_47_;
var 0..306: X_INTRODUCED_48_;
var 0..306: X_INTRODUCED_49_;
var 0..306: X_INTRODUCED_50_;
var 0..306: X_INTRODUCED_51_;
var 0..306: X_INTRODUCED_52_;
var 0..306: X_INTRODUCED_53_;
var 0..306: X_INTRODUCED_54_;
var 0..306: X_INTRODUCED_55_;
var 0..306: X_INTRODUCED_56_;
var 0..306: X_INTRODUCED_57_;
var 0..306: X_INTRODUCED_58_;
var 0..306: X_INTRODUCED_59_;
var 0..306: X_INTRODUCED_60_;
var 0..306: X_INTRODUCED_61_;
var 0..306: X_INTRODUCED_62_;
var 0..306: X_INTRODUCED_63_;
var 0..306: X_INTRODUCED_64_;
var 0..306: X_INTRODUCED_65_;
var 0..306: X_INTRODUCED_66_;
var 0..306: X_INTRODUCED_67_;
var 0..306: X_INTRODUCED_68_;
var 0..306: X_INTRODUCED_69_;
var 0..306: X_INTRODUCED_70_;
var 0..306: X_INTRODUCED_71_;
var 0..306: X_INTRODUCED_72_;
var 0..70: X_INTRODUCED_73_;
var 0..62: X_INTRODUCED_74_;
var 0..61: X_INTRODUCED_75_;
array [1..60] of var int: s:: output_array([1..60]) = [X_INTRODUCED_16_,X_INTRODUCED_17_,X_INTRODUCED_18_,X_INTRODUCED_19_,X_INTRODUCED_20_,X_INTRODUCED_21_,X_INTRODUCED_22_,X_INTRODUCED_23_,X_INTRODUCED_24_,X_INTRODUCED_25_,X_INTRODUCED_26_,X_INTRODUCED_27_,X_INTRODUCED_28_,X_INTRODUCED_29_,X_INTRODUCED_30_,X_INTRODUCED_31_,X_INTRODUCED_32_,X_INTRODUCED_33_,X_INTRODUCED_34_,X_INTRODUCED_35_,X_INTRODUCED_36_,X_INTRODUCED_37_,X_INTRODUCED_38_,X_INTRODUCED_39_,X_INTRODUCED_40_,X_INTRODUCED_41_,X_INTRODUCED_42_,X_INTRODUCED_43_,X_INTRODUCED_44_,X_INTRODUCED_45_,X_INTRODUCED_46_,X_INTRODUCED_47_,X_INTRODUCED_48_,X_INTRODUCED_49_,X_INTRODUCED_50_,X_INTRODUCED_51_,X_INTRODUCED_52_,X_INTRODUCED_53_,X_INTRODUCED_54_,X_INTRODUCED_55_,X_INTRODUCED_56_,X_INTRODUCED_57_,X_INTRODUCED_58_,X_INTRODUCED_59_,X_INTRODUCED_60_,X_INTRODUCED_61_,X_INTRODUCED_62_,X_INTRODUCED_63_,X_INTRODUCED_64_,X_INTRODUCED_65_,X_INTRODUCED_66_,X_INTRODUCED_67_,X_INTRODUCED_68_,X_INTRODUCED_69_,X_INTRODUCED_70_,X_INTRODUCED_71_,X_INTRODUCED_72_,X_INTRODUCED_73_,X_INTRODUCED_74_,X_INTRODUCED_75_];
constraint int_lin_le(X_INTRODUCED_78_,[X_INTRODUCED_16_,X_INTRODUCED_20_],-4);
constraint int_lin_le(X_INTRODUCED_78_,[X_INTRODUCED_16_,X_INTRODUCED_36_],-4);
constraint int_lin_le(X_INTRODUCED_78_,[X_INTRODUCED_16_,X_INTRODUCED_53_],-4);
constraint int_lin_le(X_INTRODUCED_78_,[X_INTRODUCED_17_,X_INTRODUCED_19_],-2);
constraint int_lin_le(X_INTRODUCED_78_,[X_INTRODUCED_17_,X_INTRODUCED_25_],-2);
constraint int_lin_le(X_INTRODUCED_78_,[X_INTRODUCED_17_,X_INTRODUCED_34_],-2);
constraint int_lin_le(X_INTRODUCED_78_,[X_INTRODUCED_18_,X_INTRODUCED_32_],-9);
constraint int_lin_le(X_INTRODUCED_78_,[X_INTRODUCED_18_,X_INTRODUCED_45_],-9);
constraint int_lin_le(X_INTRODUCED_78_,[X_INTRODUCED_18_,X_INTRODUCED_59_],-9);
constraint int_lin_le(X_INTRODUCED_78_,[X_INTRODUCED_19_,X_INTRODUCED_21_],-9);
constraint int_lin_le(X_INTRODUCED_78_,[X_INTRODUCED_19_,X_INTRODUCED_23_],-9);
constraint int_lin_le(X_INTRODUCED_78_,[X_INTRODUCED_19_,X_INTRODUCED_26_],-9);
constraint int_lin_le(X_INTRODUCED_78_,[X_INTRODUCED_20_,X_INTRODUCED_22_],-9);
constraint int_lin_le(X_INTRODUCED_78_,[X_INTRODUCED_20_,X_INTRODUCED_27_],-9);
constraint int_lin_le(X_INTRODUCED_78_,[X_INTRODUCED_20_,X_INTRODUCED_33_],-9);
constraint int_lin_le(X_INTRODUCED_78_,[X_INTRODUCED_21_,X_INTRODUCED_28_],-5);
constraint int_lin_le(X_INTRODUCED_78_,[X_INTRODUCED_21_,X_INTRODUCED_30_],-5);
constraint int_lin_le(X_INTRODUCED_78_,[X_INTRODUCED_21_,X_INTRODUCED_35_],-5);
constraint int_lin_le(X_INTRODUCED_78_,[X_INTRODUCED_22_,X_INTRODUCED_24_],-6);
constraint int_lin_le(X_INTRODUCED_78_,[X_INTRODUCED_22_,X_INTRODUCED_40_],-6);
constraint int_lin_le(X_INTRODUCED_78_,[X_INTRODUCED_23_,X_INTRODUCED_29_],-2);
constraint int_lin_le(X_INTRODUCED_78_,[X_INTRODUCED_23_,X_INTRODUCED_33_],-2);
constraint int_lin_le(X_INTRODUCED_78_,[X_INTRODUCED_23_,X_INTRODUCED_40_],-2);
constraint int_lin_le(X_INTRODUCED_78_,[X_INTRODUCED_24_,X_INTRODUCED_26_],-4);
constraint int_lin_le(X_INTRODUCED_78_,[X_INTRODUCED_24_,X_INTRODUCED_32_],-4);
constraint int_lin_le(X_INTRODUCED_78_,[X_INTRODUCED_24_,X_INTRODUCED_41_],-4);
constraint int_lin_le(X_INTRODUCED_78_,[X_INTRODUCED_25_,X_INTRODUCED_35_],-8);
constraint int_lin_le(X_INTRODUCED_78_,[X_INTRODUCED_25_,X_INTRODUCED_40_],-8);
constraint int_lin_le(X_INTRODUCED_78_,[X_INTRODUCED_25_,X_INTRODUCED_60_],-8);
constraint int_lin_le(X_INTRODUCED_78_,[X_INTRODUCED_26_,X_INTRODUCED_62_],-4);
constraint int_lin_le(X_INTRODUCED_78_,[X_INTRODUCED_27_,X_INTRODUCED_38_],-4);
constraint int_lin_le(X_INTRODUCED_78_,[X_INTRODUCED_27_,X_INTRODUCED_44_],-4);
constraint int_lin_le(X_INTRODUCED_78_,[X_INTRODUCED_27_,X_INTRODUCED_63_],-4);
constraint int_lin_le(X_INTRODUCED_78_,[X_INTRODUCED_28_,X_INTRODUCED_32_],-8);
constraint int_lin_le(X_INTRODUCED_78_,[X_INTRODUCED_28_,X_INTRODUCED_54_],-8);
constraint int_lin_le(X_INTRODUCED_78_,[X_INTRODUCED_28_,X_INTRODUCED_67_],-8);
constraint int_lin_le(X_INTRODUCED_78_,[X_INTRODUCED_29_,X_INTRODUCED_36_],-6);
constraint int_lin_le(X_INTRODUCED_78_,[X_INTRODUCED_29_,X_INTRODUCED_37_],-6);
constraint int_lin_le(X_INTRODUCED_78_,[X_INTRODUCED_29_,X_INTRODUCED_44_],-6);
constraint int_lin_le(X_INTRODUCED_78_,[X_INTRODUCED_30_,X_INTRODUCED_31_],-7);
constraint int_lin_le(X_INTRODUCED_78_,[X_INTRODUCED_30_,X_INTRODUCED_45_],-7);
constraint int_lin_le(X_INTRODUCED_78_,[X_INTRODUCED_30_,X_INTRODUCED_49_],-7);
constraint int_lin_le(X_INTRODUCED_78_,[X_INTRODUCED_31_,X_INTRODUCED_54_],-3);
constraint int_lin_le(X_INTRODUCED_78_,[X_INTRODUCED_31_,X_INTRODUCED_63_],-3);
constraint int_lin_le(X_INTRODUCED_78_,[X_INTRODUCED_31_,X_INTRODUCED_72_],-3);
constraint int_lin_le(X_INTRODUCED_78_,[X_INTRODUCED_32_,X_INTRODUCED_39_],-2);
constraint int_lin_le(X_INTRODUCED_78_,[X_INTRODUCED_32_,X_INTRODUCED_58_],-2);
constraint int_lin_le(X_INTRODUCED_78_,[X_INTRODUCED_32_,X_INTRODUCED_70_],-2);
constraint int_lin_le(X_INTRODUCED_78_,[X_INTRODUCED_33_,X_INTRODUCED_42_],-3);
constraint int_lin_le(X_INTRODUCED_78_,[X_INTRODUCED_33_,X_INTRODUCED_46_],-3);
constraint int_lin_le(X_INTRODUCED_78_,[X_INTRODUCED_33_,X_INTRODUCED_56_],-3);
constraint int_lin_le(X_INTRODUCED_78_,[X_INTRODUCED_34_,X_INTRODUCED_53_],-2);
constraint int_lin_le(X_INTRODUCED_78_,[X_INTRODUCED_34_,X_INTRODUCED_59_],-2);
constraint int_lin_le(X_INTRODUCED_78_,[X_INTRODUCED_34_,X_INTRODUCED_62_],-2);
constraint int_lin_le(X_INTRODUCED_78_,[X_INTRODUCED_35_,X_INTRODUCED_47_],-4);
constraint int_lin_le(X_INTRODUCED_78_,[X_INTRODUCED_35_,X_INTRODUCED_58_],-4);
constraint int_lin_le(X_INTRODUCED_78_,[X_INTRODUCED_35_,X_INTRODUCED_66_],-4);
constraint int_lin_le(X_INTRODUCED_78_,[X_INTRODUCED_36_,X_INTRODUCED_38_],-10);
constraint int_lin_le(X_INTRODUCED_78_,[X_INTRODUCED_37_,X_INTRODUCED_43_],-4);
constraint int_lin_le(X_INTRODUCED_78_,[X_INTRODUCED_37_,X_INTRODUCED_46_],-4);
constraint int_lin_le(X_INTRODUCED_78_,[X_INTRODUCED_38_,X_INTRODUCED_39_],-3);
constraint int_lin_le(X_INTRODUCED_78_,[X_INTRODUCED_38_,X_INTRODUCED_42_],-3);
constraint int_lin_le(X_INTRODUCED_78_,[X_INTRODUCED_38_,X_INTRODUCED_51_],-3);
constraint int_lin_le(X_INTRODUCED_78_,[X_INTRODUCED_39_,X_INTRODUCED_50_],-5);
constraint int_lin_le(X_INTRODUCED_78_,[X_INTRODUCED_39_,X_INTRODUCED_68_],-5);
constraint int_lin_le(X_INTRODUCED_78_,[X_INTRODUCED_39_,X_INTRODUCED_69_],-5);
constraint int_lin_le(X_INTRODUCED_78_,[X_INTRODUCED_40_,X_INTRODUCED_43_],-2);
constraint int_lin_le(X_INTRODUCED_78_,[X_INTRODUCED_40_,X_INTRODUCED_48_],-2);
constraint int_lin_le(X_INTRODUCED_78_,[X_INTRODUCED_41_,X_INTRODUCED_44_],-5);
constraint int_lin_le(X_INTRODUCED_78_,[X_INTRODUCED_41_,X_INTRODUCED_51_],-5);
constraint int_lin_le(X_INTRODUCED_78_,[X_INTRODUCED_41_,X_INTRODUCED_55_],-5);
constraint int_lin_le(X_INTRODUCED_78_,[X_INTRODUCED_42_,X_INTRODUCED_48_],-9);
constraint int_lin_le(X_INTRODUCED_78_,[X_INTRODUCED_42_,X_INTRODUCED_50_],-9);
constraint int_lin_le(X_INTRODUCED_78_,[X_INTRODUCED_43_,X_INTRODUCED_45_],-4);
constraint int_lin_le(X_INTRODUCED_78_,[X_INTRODUCED_43_,X_INTRODUCED_49_],-4);
constraint int_lin_le(X_INTRODUCED_78_,[X_INTRODUCED_44_,X_INTRODUCED_46_],-4);
constraint int_lin_le(X_INTRODUCED_78_,[X_INTRODUCED_45_,X_INTRODUCED_54_],-8);
constraint int_lin_le(X_INTRODUCED_78_,[X_INTRODUCED_45_,X_INTRODUCED_57_],-8);
constraint int_lin_le(X_INTRODUCED_78_,[X_INTRODUCED_45_,X_INTRODUCED_64_],-8);
constraint int_lin_le(X_INTRODUCED_78_,[X_INTRODUCED_46_,X_INTRODUCED_48_],-5);
constraint int_lin_le(X_INTRODUCED_78_,[X_INTRODUCED_46_,X_INTRODUCED_50_],-5);
constraint int_lin_le(X_INTRODUCED_78_,[X_INTRODUCED_46_,X_INTRODUCED_66_],-5);
constraint int_lin_le(X_INTRODUCED_78_,[X_INTRODUCED_47_,X_INTRODUCED_53_],-5);
constraint int_lin_le(X_INTRODUCED_78_,[X_INTRODUCED_47_,X_INTRODUCED_68_],-5);
constraint int_lin_le(X_INTRODUCED_78_,[X_INTRODUCED_47_,X_INTRODUCED_73_],-5);
constraint int_lin_le(X_INTRODUCED_78_,[X_INTRODUCED_48_,X_INTRODUCED_57_],-9);
constraint int_lin_le(X_INTRODUCED_78_,[X_INTRODUCED_48_,X_INTRODUCED_74_],-9);
constraint int_lin_le(X_INTRODUCED_78_,[X_INTRODUCED_49_,X_INTRODUCED_51_],-5);
constraint int_lin_le(X_INTRODUCED_78_,[X_INTRODUCED_49_,X_INTRODUCED_52_],-5);
constraint int_lin_le(X_INTRODUCED_78_,[X_INTRODUCED_50_,X_INTRODUCED_60_],-1);
constraint int_lin_le(X_INTRODUCED_78_,[X_INTRODUCED_51_,X_INTRODUCED_57_],-3);
constraint int_lin_le(X_INTRODUCED_78_,[X_INTRODUCED_51_,X_INTRODUCED_58_],-3);
constraint int_lin_le(X_INTRODUCED_78_,[X_INTRODUCED_51_,X_INTRODUCED_68_],-3);
constraint int_lin_le(X_INTRODUCED_78_,[X_INTRODUCED_52_,X_INTRODUCED_56_],-3);
constraint int_lin_le(X_INTRODUCED_78_,[X_INTRODUCED_52_,X_INTRODUCED_59_],-3);
constraint int_lin_le(X_INTRODUCED_78_,[X_INTRODUCED_53_,X_INTRODUCED_67_],-4);
constraint int_lin_le(X_INTRODUCED_78_,[X_INTRODUCED_53_,X_INTRODUCED_71_],-4);
constraint int_lin_le(X_INTRODUCED_78_,[X_INTRODUCED_54_,X_INTRODUCED_61_],-8);
constraint int_lin_le(X_INTRODUCED_78_,[X_INTRODUCED_54_,X_INTRODUCED_65_],-8);
constraint int_lin_le(X_INTRODUCED_78_,[X_INTRODUCED_55_,X_INTRODUCED_60_],-6);
constraint int_lin_le(X_INTRODUCED_78_,[X_INTRODUCED_55_,X_INTRODUCED_61_],-6);
constraint int_lin_le(X_INTRODUCED_78_,[X_INTRODUCED_55_,X_INTRODUCED_64_],-6);
constraint int_lin_le(X_INTRODUCED_78_,[X_INTRODUCED_56_,X_INTRODUCED_61_],-1);
constraint int_lin_le(X_INTRODUCED_78_,[X_INTRODUCED_56_,X_INTRODUCED_64_],-1);
constraint int_lin_le(X_INTRODUCED_78_,[X_INTRODUCED_57_,X_INTRODUCED_67_],-10);
constraint int_lin_le(X_INTRODUCED_78_,[X_INTRODUCED_58_,X_INTRODUCED_62_],-4);
constraint int_lin_le(X_INTRODUCED_78_,[X_INTRODUCED_58_,X_INTRODUCED_69_],-4);
constraint int_lin_le(X_INTRODUCED_78_,[X_INTRODUCED_59_,X_INTRODUCED_63_],-3);
constraint int_lin_le(X_INTRODUCED_78_,[X_INTRODUCED_60_,X_INTRODUCED_65_],-2);
constraint int_lin_le(X_INTRODUCED_78_,[X_INTRODUCED_61_,X_INTRODUCED_69_],-6);
constraint int_lin_le(X_INTRODUCED_78_,[X_INTRODUCED_62_,X_INTRODUCED_71_],-2);
constraint int_lin_le(X_INTRODUCED_78_,[X_INTRODUCED_62_,X_INTRODUCED_75_],-2);
constraint int_lin_le(X_INTRODUCED_78_,[X_INTRODUCED_63_,X_INTRODUCED_65_],-9);
constraint int_lin_le(X_INTRODUCED_78_,[X_INTRODUCED_63_,X_INTRODUCED_70_],-9);
constraint int_lin_le(X_INTRODUCED_78_,[X_INTRODUCED_64_,X_INTRODUCED_66_],-5);
constraint int_lin_le(X_INTRODUCED_78_,[X_INTRODUCED_64_,X_INTRODUCED_70_],-5);
constraint int_lin_le(X_INTRODUCED_78_,[X_INTRODUCED_65_,X_INTRODUCED_73_],-5);
constraint int_lin_le(X_INTRODUCED_78_,[X_INTRODUCED_65_,X_INTRODUCED_75_],-5);
constraint int_lin_le(X_INTRODUCED_78_,[X_INTRODUCED_66_,X_INTRODUCED_72_],-2);
constraint int_lin_le(X_INTRODUCED_78_,[X_INTRODUCED_67_,X_INTRODUCED_75_],-1);
constraint int_lin_le(X_INTRODUCED_78_,[X_INTRODUCED_68_,X_INTRODUCED_72_],-4);
constraint int_lin_le(X_INTRODUCED_78_,[X_INTRODUCED_69_,X_INTRODUCED_71_],-6);
constraint int_lin_le(X_INTRODUCED_78_,[X_INTRODUCED_70_,X_INTRODUCED_73_],-10);
constraint int_lin_le(X_INTRODUCED_78_,[X_INTRODUCED_71_,X_INTRODUCED_74_],-6);
constraint int_lin_le(X_INTRODUCED_78_,[X_INTRODUCED_72_,X_INTRODUCED_74_],-7);
constraint minicpp_cumulative(s,X_INTRODUCED_136_,X_INTRODUCED_135_,35);
constraint minicpp_cumulative(s,X_INTRODUCED_136_,X_INTRODUCED_137_,35);
constraint minicpp_cumulative(s,X_INTRODUCED_136_,X_INTRODUCED_138_,41);
constraint minicpp_cumulative(s,X_INTRODUCED_136_,X_INTRODUCED_139_,35);
solve :: int_search(s,smallest,indomain_min,complete) satisfy;
